p edge 30 870 4 870 
2 1 0.000000 
3 1 0.000000 
4 1 0.000031 
5 1 0.000000 
6 1 0.004683 
7 1 0.000000 
8 1 0.040306 
9 1 0.000007 
10 1 0.000000 
11 1 0.000000 
12 1 0.204480 
13 1 0.000986 
14 1 0.000000 
15 1 0.000000 
16 1 0.000000 
17 1 0.000001 
18 1 0.000000 
19 1 0.000091 
20 1 0.000010 
21 1 0.024514 
22 1 0.000000 
23 1 0.000000 
24 1 0.000000 
25 1 0.000000 
26 1 0.000799 
27 1 0.000063 
28 1 0.000000 
29 1 0.001092 
30 1 0.000000 
1 2 0.000000 
3 2 0.000000 
4 2 0.000000 
5 2 0.000134 
6 2 0.000000 
7 2 0.000156 
8 2 0.000000 
9 2 0.000000 
10 2 0.000000 
11 2 0.033126 
12 2 0.000000 
13 2 0.000000 
14 2 0.000000 
15 2 0.000003 
16 2 0.000001 
17 2 0.000000 
18 2 0.000111 
19 2 0.000000 
20 2 0.000000 
21 2 0.000000 
22 2 0.001918 
23 2 0.269822 
24 2 0.000000 
25 2 0.000000 
26 2 0.000000 
27 2 0.000000 
28 2 0.000020 
29 2 0.000000 
30 2 0.000000 
1 3 0.000000 
2 3 0.000000 
4 3 0.000958 
5 3 0.000072 
6 3 0.005461 
7 3 0.054290 
8 3 0.000080 
9 3 0.077911 
10 3 0.087470 
11 3 0.000005 
12 3 0.000073 
13 3 0.006157 
14 3 0.176518 
15 3 0.000831 
16 3 0.184321 
17 3 0.144228 
18 3 0.003278 
19 3 0.046692 
20 3 0.024266 
21 3 0.000760 
22 3 0.000036 
23 3 0.000000 
24 3 0.241100 
25 3 0.154907 
26 3 0.001083 
27 3 0.026453 
28 3 0.002094 
29 3 0.011905 
30 3 0.230144 
1 4 0.000060 
2 4 0.000000 
3 4 0.000029 
5 4 0.000000 
6 4 0.001398 
7 4 0.000008 
8 4 0.022143 
9 4 0.003012 
10 4 0.000000 
11 4 0.000000 
12 4 0.000826 
13 4 0.022548 
14 4 0.000269 
15 4 0.000000 
16 4 0.000006 
17 4 0.000212 
18 4 0.000000 
19 4 0.001032 
20 4 0.080870 
21 4 0.005850 
22 4 0.000000 
23 4 0.000000 
24 4 0.000004 
25 4 0.000412 
26 4 0.078163 
27 4 0.023679 
28 4 0.000000 
29 4 0.004354 
30 4 0.000032 
1 5 0.000000 
2 5 0.009786 
3 5 0.000084 
4 5 0.000000 
6 5 0.000000 
7 5 0.120341 
8 5 0.000000 
9 5 0.000001 
10 5 0.114285 
11 5 0.222663 
12 5 0.000000 
13 5 0.000000 
14 5 0.000158 
15 5 0.316134 
16 5 0.022161 
17 5 0.000002 
18 5 0.304562 
19 5 0.000000 
20 5 0.000001 
21 5 0.000000 
22 5 0.341024 
23 5 0.072968 
24 5 0.004210 
25 5 0.000009 
26 5 0.000000 
27 5 0.000000 
28 5 0.352587 
29 5 0.000000 
30 5 0.000522 
1 6 0.045974 
2 6 0.000000 
3 6 0.002302 
4 6 0.018707 
5 6 0.000000 
7 6 0.000030 
8 6 0.129087 
9 6 0.039000 
10 6 0.000007 
11 6 0.000000 
12 6 0.227433 
13 6 0.134840 
14 6 0.003092 
15 6 0.000000 
16 6 0.000138 
17 6 0.022525 
18 6 0.000000 
19 6 0.104440 
20 6 0.025313 
21 6 0.247843 
22 6 0.000000 
23 6 0.000000 
24 6 0.000217 
25 6 0.012539 
26 6 0.069367 
27 6 0.066485 
28 6 0.000000 
29 6 0.179985 
30 6 0.001171 
1 7 0.000000 
2 7 0.000693 
3 7 0.003910 
4 7 0.000017 
5 7 0.007141 
6 7 0.000005 
8 7 0.000000 
9 7 0.000419 
10 7 0.008777 
11 7 0.007997 
12 7 0.000000 
13 7 0.000016 
14 7 0.006786 
15 7 0.004554 
16 7 0.022057 
17 7 0.000663 
18 7 0.011958 
19 7 0.000089 
20 7 0.000291 
21 7 0.000001 
22 7 0.008951 
23 7 0.003468 
24 7 0.009782 
25 7 0.001543 
26 7 0.000007 
27 7 0.000130 
28 7 0.007400 
29 7 0.000018 
30 7 0.008785 
1 8 0.039704 
2 8 0.000000 
3 8 0.000002 
4 8 0.020310 
5 8 0.000000 
6 8 0.010540 
7 8 0.000000 
9 8 0.000681 
10 8 0.000000 
11 8 0.000000 
12 8 0.038125 
13 8 0.017759 
14 8 0.000016 
15 8 0.000000 
16 8 0.000000 
17 8 0.000072 
18 8 0.000000 
19 8 0.001349 
20 8 0.006420 
21 8 0.030822 
22 8 0.000000 
23 8 0.000000 
24 8 0.000000 
25 8 0.000058 
26 8 0.040405 
27 8 0.006018 
28 8 0.000000 
29 8 0.007845 
30 8 0.000001 
1 9 0.000254 
2 9 0.000000 
3 9 0.058871 
4 9 0.069454 
5 9 0.000001 
6 9 0.067381 
7 9 0.004730 
8 9 0.014692 
10 9 0.001774 
11 9 0.000000 
12 9 0.006151 
13 9 0.081440 
14 9 0.073260 
15 9 0.000006 
16 9 0.012689 
17 9 0.140643 
18 9 0.000078 
19 9 0.144884 
20 9 0.124143 
21 9 0.027254 
22 9 0.000000 
23 9 0.000000 
24 9 0.015657 
25 9 0.122424 
26 9 0.058268 
27 9 0.127464 
28 9 0.000028 
29 9 0.096951 
30 9 0.043015 
1 10 0.000000 
2 10 0.000008 
3 10 0.028234 
4 10 0.000002 
5 10 0.033806 
6 10 0.000006 
7 10 0.038247 
8 10 0.000000 
9 10 0.000761 
11 10 0.002943 
12 10 0.000000 
13 10 0.000010 
14 10 0.015000 
15 10 0.064243 
16 10 0.069906 
17 10 0.002885 
18 10 0.031249 
19 10 0.000189 
20 10 0.000192 
21 10 0.000000 
22 10 0.015018 
23 10 0.000232 
24 10 0.082299 
25 10 0.004913 
26 10 0.000001 
27 10 0.000112 
28 10 0.048752 
29 10 0.000021 
30 10 0.037385 
1 11 0.000000 
2 11 0.262499 
3 11 0.000002 
4 11 0.000000 
5 11 0.031865 
6 11 0.000000 
7 11 0.018825 
8 11 0.000000 
9 11 0.000000 
10 11 0.001434 
12 11 0.000000 
13 11 0.000000 
14 11 0.000010 
15 11 0.005284 
16 11 0.000681 
17 11 0.000000 
18 11 0.025502 
19 11 0.000000 
20 11 0.000000 
21 11 0.000000 
22 11 0.119339 
23 11 0.363583 
24 11 0.000065 
25 11 0.000000 
26 11 0.000000 
27 11 0.000000 
28 11 0.011867 
29 11 0.000000 
30 11 0.000020 
1 12 0.736899 
2 12 0.000000 
3 12 0.000007 
4 12 0.003503 
5 12 0.000000 
6 12 0.081997 
7 12 0.000000 
8 12 0.144544 
9 12 0.001165 
10 12 0.000000 
11 12 0.000000 
13 12 0.032556 
14 12 0.000014 
15 12 0.000000 
16 12 0.000000 
17 12 0.000297 
18 12 0.000000 
19 12 0.007042 
20 12 0.001637 
21 12 0.173175 
22 12 0.000000 
23 12 0.000000 
24 12 0.000000 
25 12 0.000121 
26 12 0.024102 
27 12 0.005757 
28 12 0.000000 
29 12 0.035671 
30 12 0.000003 
1 13 0.008484 
2 13 0.000000 
3 13 0.001532 
4 13 0.170847 
5 13 0.000000 
6 13 0.079665 
7 13 0.000059 
8 13 0.132762 
9 13 0.028095 
10 13 0.000007 
11 13 0.000000 
12 13 0.054247 
14 13 0.003023 
15 13 0.000000 
16 13 0.000140 
17 13 0.011585 
18 13 0.000000 
19 13 0.044741 
20 13 0.107650 
21 13 0.096213 
22 13 0.000000 
23 13 0.000000 
24 13 0.000174 
25 13 0.008401 
26 13 0.189023 
27 13 0.085319 
28 13 0.000000 
29 13 0.080344 
30 13 0.000951 
1 14 0.000000 
2 14 0.000000 
3 14 0.090952 
4 14 0.004297 
5 14 0.000053 
6 14 0.003722 
7 14 0.046137 
8 14 0.000244 
9 14 0.049578 
10 14 0.024530 
11 14 0.000016 
12 14 0.000071 
13 14 0.006073 
15 14 0.000240 
16 14 0.076568 
17 14 0.069171 
18 14 0.002068 
19 14 0.026649 
20 14 0.028740 
21 14 0.000763 
22 14 0.000057 
23 14 0.000001 
24 14 0.077297 
25 14 0.081589 
26 14 0.002693 
27 14 0.022891 
28 14 0.000831 
29 14 0.008410 
30 14 0.097230 
1 15 0.000000 
2 15 0.000140 
3 15 0.000656 
4 15 0.000000 
5 15 0.225919 
6 15 0.000000 
7 15 0.054141 
8 15 0.000000 
9 15 0.000006 
10 15 0.155618 
11 15 0.026249 
12 15 0.000000 
13 15 0.000000 
14 15 0.000355 
16 15 0.019673 
17 15 0.000030 
18 15 0.174280 
19 15 0.000001 
20 15 0.000002 
21 15 0.000000 
22 15 0.110618 
23 15 0.002930 
24 15 0.007950 
25 15 0.000064 
26 15 0.000000 
27 15 0.000001 
28 15 0.274127 
29 15 0.000000 
30 15 0.001279 
1 16 0.000000 
2 16 0.000018 
3 16 0.076403 
4 16 0.000084 
5 16 0.008199 
6 16 0.000137 
7 16 0.122768 
8 16 0.000001 
9 16 0.006963 
10 16 0.091687 
11 16 0.001669 
12 16 0.000001 
13 16 0.000245 
14 16 0.061262 
15 16 0.010437 
17 16 0.015881 
18 16 0.016799 
19 16 0.002320 
20 16 0.002869 
21 16 0.000014 
22 16 0.005351 
23 16 0.000253 
24 16 0.148357 
25 16 0.025019 
26 16 0.000049 
27 16 0.001800 
28 16 0.013394 
29 16 0.000417 
30 16 0.101925 
1 17 0.000050 
2 17 0.000000 
3 17 0.180996 
4 17 0.007703 
5 17 0.000003 
6 17 0.065083 
7 17 0.012246 
8 17 0.002774 
9 17 0.232599 
10 17 0.011168 
11 17 0.000000 
12 17 0.002820 
13 17 0.056769 
14 17 0.169154 
15 17 0.000049 
16 17 0.048229 
18 17 0.000345 
19 17 0.216888 
20 17 0.080780 
21 17 0.016073 
22 17 0.000001 
23 17 0.000000 
24 17 0.067495 
25 17 0.268161 
26 17 0.013707 
27 17 0.122534 
28 17 0.000170 
29 17 0.099460 
30 17 0.131158 
1 18 0.000000 
2 18 0.004752 
3 18 0.002195 
4 18 0.000000 
5 18 0.178740 
6 18 0.000000 
7 18 0.132773 
8 18 0.000000 
9 18 0.000065 
10 18 0.062646 
11 18 0.104320 
12 18 0.000000 
13 18 0.000001 
14 18 0.003071 
15 18 0.143212 
16 18 0.028768 
17 18 0.000172 
19 18 0.000009 
20 18 0.000036 
21 18 0.000000 
22 18 0.160423 
23 18 0.034369 
24 18 0.010090 
25 18 0.000457 
26 18 0.000000 
27 18 0.000010 
28 18 0.168397 
29 18 0.000001 
30 18 0.005182 
1 19 0.002844 
2 19 0.000000 
3 19 0.042744 
4 19 0.028727 
5 19 0.000000 
6 19 0.216417 
7 19 0.001215 
8 19 0.035247 
9 19 0.176822 
10 19 0.000517 
11 19 0.000000 
12 19 0.043189 
13 19 0.157679 
14 19 0.047903 
15 19 0.000001 
16 19 0.005111 
17 19 0.159310 
18 19 0.000013 
20 19 0.087349 
21 19 0.101436 
22 19 0.000000 
23 19 0.000000 
24 19 0.007563 
25 19 0.114041 
26 19 0.059557 
27 19 0.168808 
28 19 0.000005 
29 19 0.240166 
30 19 0.025971 
1 20 0.000043 
2 20 0.000000 
3 20 0.001786 
4 20 0.183968 
5 20 0.000000 
6 20 0.004271 
7 20 0.000330 
8 20 0.015429 
9 20 0.012210 
10 20 0.000044 
11 20 0.000000 
12 20 0.000805 
13 20 0.031286 
14 20 0.004155 
15 20 0.000000 
16 20 0.000507 
17 20 0.004907 
18 20 0.000004 
19 20 0.007108 
21 20 0.006339 
22 20 0.000000 
23 20 0.000000 
24 20 0.000441 
25 20 0.005764 
26 20 0.078520 
27 20 0.039914 
28 20 0.000001 
29 20 0.010180 
30 20 0.001657 
1 21 0.145212 
2 21 0.000000 
3 21 0.000157 
4 21 0.039897 
5 21 0.000000 
6 21 0.139077 
7 21 0.000002 
8 21 0.195360 
9 21 0.008527 
10 21 0.000000 
11 21 0.000000 
12 21 0.267952 
13 21 0.092994 
14 21 0.000315 
15 21 0.000000 
16 21 0.000007 
17 21 0.002914 
18 21 0.000000 
19 21 0.027250 
20 21 0.020325 
22 21 0.000000 
23 21 0.000000 
24 21 0.000010 
25 21 0.001554 
26 21 0.099590 
27 21 0.031815 
28 21 0.000000 
29 21 0.085588 
30 21 0.000076 
1 22 0.000000 
2 22 0.064683 
3 22 0.000028 
4 22 0.000000 
5 22 0.167056 
6 22 0.000000 
7 22 0.074697 
8 22 0.000000 
9 22 0.000000 
10 22 0.024853 
11 22 0.406788 
12 22 0.000000 
13 22 0.000000 
14 22 0.000113 
15 22 0.075706 
16 22 0.007403 
17 22 0.000001 
18 22 0.133977 
19 22 0.000000 
20 22 0.000000 
21 22 0.000000 
23 22 0.236484 
24 22 0.001044 
25 22 0.000005 
26 22 0.000000 
27 22 0.000000 
28 22 0.108762 
29 22 0.000000 
30 22 0.000232 
1 23 0.000000 
2 23 0.656101 
3 23 0.000000 
4 23 0.000000 
5 23 0.003125 
6 23 0.000000 
7 23 0.002439 
8 23 0.000000 
9 23 0.000000 
10 23 0.000036 
11 23 0.114062 
12 23 0.000000 
13 23 0.000000 
14 23 0.000000 
15 23 0.000185 
16 23 0.000030 
17 23 0.000000 
18 23 0.002525 
19 23 0.000000 
20 23 0.000000 
21 23 0.000000 
22 23 0.020955 
24 23 0.000001 
25 23 0.000000 
26 23 0.000000 
27 23 0.000000 
28 23 0.000718 
29 23 0.000000 
30 23 0.000000 
1 24 0.000000 
2 24 0.000000 
3 24 0.135231 
4 24 0.000082 
5 24 0.002143 
6 24 0.000293 
7 24 0.071335 
8 24 0.000002 
9 24 0.011691 
10 24 0.142938 
11 24 0.000200 
12 24 0.000002 
13 24 0.000409 
14 24 0.083491 
15 24 0.005688 
16 24 0.198836 
17 24 0.030218 
18 24 0.008206 
19 24 0.004675 
20 24 0.003434 
21 24 0.000026 
22 24 0.001025 
23 24 0.000014 
25 24 0.041746 
26 24 0.000062 
27 24 0.002773 
28 24 0.007280 
29 24 0.000817 
30 24 0.157484 
1 25 0.000014 
2 25 0.000000 
3 25 0.172325 
4 25 0.013733 
5 25 0.000008 
6 25 0.032328 
7 25 0.024680 
8 25 0.001957 
9 25 0.179292 
10 25 0.017094 
11 25 0.000001 
12 25 0.001103 
13 25 0.036367 
14 25 0.176774 
15 25 0.000095 
16 25 0.067549 
17 25 0.237485 
18 25 0.000779 
19 25 0.137338 
20 25 0.085014 
21 25 0.007885 
22 25 0.000006 
23 25 0.000000 
24 25 0.082883 
26 25 0.013066 
27 25 0.094270 
28 25 0.000345 
29 25 0.056332 
30 25 0.142470 
1 26 0.002363 
2 26 0.000000 
3 26 0.000073 
4 26 0.164806 
5 26 0.000000 
6 26 0.011727 
7 26 0.000008 
8 26 0.091958 
9 26 0.005846 
10 26 0.000000 
11 26 0.000000 
12 26 0.011987 
13 26 0.053826 
14 26 0.000400 
15 26 0.000000 
16 26 0.000007 
17 26 0.000804 
18 26 0.000000 
19 26 0.004895 
20 26 0.074374 
21 26 0.030938 
22 26 0.000000 
23 26 0.000000 
24 26 0.000007 
25 26 0.000893 
27 26 0.037517 
28 26 0.000000 
29 26 0.016992 
30 26 0.000057 
1 27 0.000834 
2 27 0.000000 
3 27 0.007173 
4 27 0.197421 
5 27 0.000000 
6 27 0.041539 
7 27 0.000526 
8 27 0.049172 
9 27 0.046664 
10 27 0.000090 
11 27 0.000000 
12 27 0.010358 
13 27 0.089590 
14 27 0.012215 
15 27 0.000000 
16 27 0.001148 
17 27 0.026985 
18 27 0.000004 
19 27 0.050358 
20 27 0.149266 
21 27 0.035014 
22 27 0.000000 
23 27 0.000000 
24 27 0.001305 
25 27 0.023453 
26 27 0.141473 
28 27 0.000001 
29 27 0.058009 
30 27 0.005174 
1 28 0.000000 
2 28 0.001321 
3 28 0.002246 
4 28 0.000000 
5 28 0.341393 
6 28 0.000000 
7 28 0.126736 
8 28 0.000000 
9 28 0.000036 
10 28 0.160424 
11 28 0.079901 
12 28 0.000000 
13 28 0.000000 
14 28 0.001807 
15 28 0.371994 
16 28 0.035301 
17 28 0.000140 
18 28 0.278444 
19 28 0.000005 
20 28 0.000014 
21 28 0.000000 
22 28 0.215035 
23 28 0.015871 
24 28 0.014045 
25 28 0.000318 
26 28 0.000000 
27 28 0.000004 
29 28 0.000000 
30 28 0.004324 
1 29 0.017263 
2 29 0.000000 
3 29 0.006611 
4 29 0.074594 
5 29 0.000000 
6 29 0.232039 
7 29 0.000152 
8 29 0.124201 
9 29 0.072822 
10 29 0.000033 
11 29 0.000000 
12 29 0.130353 
13 29 0.175341 
14 29 0.009209 
15 29 0.000000 
16 29 0.000549 
17 29 0.044803 
18 29 0.000001 
19 29 0.149180 
20 29 0.078774 
21 29 0.194780 
22 29 0.000000 
23 29 0.000000 
24 29 0.000792 
25 29 0.028593 
26 29 0.129382 
27 29 0.120709 
28 29 0.000000 
30 29 0.003751 
1 30 0.000000 
2 30 0.000000 
3 30 0.185449 
4 30 0.000857 
5 30 0.000344 
6 30 0.002231 
7 30 0.093129 
8 30 0.000039 
9 30 0.045827 
10 30 0.094567 
11 30 0.000059 
12 30 0.000024 
13 30 0.003108 
14 30 0.151627 
15 30 0.001338 
16 30 0.198213 
17 30 0.084068 
18 30 0.005817 
19 30 0.022776 
20 30 0.018230 
21 30 0.000299 
22 30 0.000243 
23 30 0.000005 
24 30 0.227210 
25 30 0.103015 
26 30 0.000681 
27 30 0.015474 
28 30 0.003222 
29 30 0.005443 
sd 
0.000049 
0.000203 
0.029268 
0.000162 
0.201843 
0.005718 
0.004855 
0.000137 
0.018831 
0.027627 
0.015441 
0.000664 
0.002884 
0.013260 
0.142033 
0.014735 
0.039990 
0.095293 
0.022465 
0.000951 
0.001751 
0.079396 
0.001963 
0.016772 
0.033035 
0.000449 
0.004498 
0.194475 
0.008899 
0.022354 
Smatrix 
2 1 0.000000 
3 1 0.000000 
4 1 0.000012 
5 1 0.000000 
6 1 0.002263 
7 1 0.000000 
8 1 0.034005 
9 1 0.000001 
10 1 0.000000 
11 1 0.000000 
12 1 0.191686 
13 1 0.000440 
14 1 0.000000 
15 1 0.000000 
16 1 0.000000 
17 1 0.000000 
18 1 0.000000 
19 1 0.000029 
20 1 0.000002 
21 1 0.016026 
22 1 0.000000 
23 1 0.000000 
24 1 0.000000 
25 1 0.000000 
26 1 0.000442 
27 1 0.000019 
28 1 0.000000 
29 1 0.000456 
30 1 0.000000 
1 2 0.000000 
3 2 0.000000 
4 2 0.000000 
5 2 0.000068 
6 2 0.000000 
7 2 0.000091 
8 2 0.000000 
9 2 0.000000 
10 2 0.000000 
11 2 0.027762 
12 2 0.000000 
13 2 0.000000 
14 2 0.000000 
15 2 0.000001 
16 2 0.000000 
17 2 0.000000 
18 2 0.000056 
19 2 0.000000 
20 2 0.000000 
21 2 0.000000 
22 2 0.001267 
23 2 0.277568 
24 2 0.000000 
25 2 0.000000 
26 2 0.000000 
27 2 0.000000 
28 2 0.000008 
29 2 0.000000 
30 2 0.000000 
1 3 0.000000 
2 3 0.000000 
4 3 0.000521 
5 3 0.000058 
6 3 0.003022 
7 3 0.050884 
8 3 0.000015 
9 3 0.070786 
10 3 0.082759 
11 3 0.000004 
12 3 0.000013 
13 3 0.003639 
14 3 0.183893 
15 3 0.000684 
16 3 0.184357 
17 3 0.144613 
18 3 0.002828 
19 3 0.038263 
20 3 0.019880 
21 3 0.000262 
22 3 0.000029 
23 3 0.000000 
24 3 0.247502 
25 3 0.157772 
26 3 0.000496 
27 3 0.020381 
28 3 0.001776 
29 3 0.007709 
30 3 0.241900 
1 4 0.000011 
2 4 0.000000 
3 4 0.000017 
5 4 0.000000 
6 4 0.001063 
7 4 0.000005 
8 4 0.018254 
9 4 0.002711 
10 4 0.000000 
11 4 0.000000 
12 4 0.000441 
13 4 0.022127 
14 4 0.000194 
15 4 0.000000 
16 4 0.000003 
17 4 0.000154 
18 4 0.000000 
19 4 0.000851 
20 4 0.087739 
21 4 0.004414 
22 4 0.000000 
23 4 0.000000 
24 4 0.000002 
25 4 0.000313 
26 4 0.084516 
27 4 0.024334 
28 4 0.000000 
29 4 0.003795 
30 4 0.000019 
1 5 0.000000 
2 5 0.004164 
3 5 0.000063 
4 5 0.000000 
6 5 0.000000 
7 5 0.119856 
8 5 0.000000 
9 5 0.000000 
10 5 0.110002 
11 5 0.209774 
12 5 0.000000 
13 5 0.000000 
14 5 0.000113 
15 5 0.313488 
16 5 0.021519 
17 5 0.000001 
18 5 0.308564 
19 5 0.000000 
20 5 0.000000 
21 5 0.000000 
22 5 0.350480 
23 5 0.053875 
24 5 0.003970 
25 5 0.000005 
26 5 0.000000 
27 5 0.000000 
28 5 0.353196 
29 5 0.000000 
30 5 0.000453 
1 6 0.028722 
2 6 0.000000 
3 6 0.001340 
4 6 0.014026 
5 6 0.000000 
7 6 0.000010 
8 6 0.120082 
9 6 0.035178 
10 6 0.000002 
11 6 0.000000 
12 6 0.230465 
13 6 0.143416 
14 6 0.001880 
15 6 0.000000 
16 6 0.000053 
17 6 0.018628 
18 6 0.000000 
19 6 0.107141 
20 6 0.020612 
21 6 0.264522 
22 6 0.000000 
23 6 0.000000 
24 6 0.000089 
25 6 0.009493 
26 6 0.068709 
27 6 0.064782 
28 6 0.000000 
29 6 0.196483 
30 6 0.000609 
1 7 0.000000 
2 7 0.000345 
3 7 0.003380 
4 7 0.000010 
5 7 0.007397 
6 7 0.000001 
8 7 0.000000 
9 7 0.000308 
10 7 0.007496 
11 7 0.008375 
12 7 0.000000 
13 7 0.000006 
14 7 0.006739 
15 7 0.004291 
16 7 0.021701 
17 7 0.000493 
18 7 0.013940 
19 7 0.000048 
20 7 0.000258 
21 7 0.000000 
22 7 0.009958 
23 7 0.002922 
24 7 0.008462 
25 7 0.001305 
26 7 0.000003 
27 7 0.000081 
28 7 0.007546 
29 7 0.000007 
30 7 0.008089 
1 8 0.035468 
2 8 0.000000 
3 8 0.000001 
4 8 0.019800 
5 8 0.000000 
6 8 0.009870 
7 8 0.000000 
9 8 0.000389 
10 8 0.000000 
11 8 0.000000 
12 8 0.046016 
13 8 0.016986 
14 8 0.000004 
15 8 0.000000 
16 8 0.000000 
17 8 0.000032 
18 8 0.000000 
19 8 0.000936 
20 8 0.004335 
21 8 0.034855 
22 8 0.000000 
23 8 0.000000 
24 8 0.000000 
25 8 0.000022 
26 8 0.046702 
27 8 0.004576 
28 8 0.000000 
29 8 0.006859 
30 8 0.000000 
1 9 0.000033 
2 9 0.000000 
3 9 0.054096 
4 9 0.061684 
5 9 0.000000 
6 9 0.060642 
7 9 0.003543 
8 9 0.008149 
10 9 0.001010 
11 9 0.000000 
12 9 0.003179 
13 9 0.077193 
14 9 0.070922 
15 9 0.000002 
16 9 0.009543 
17 9 0.147399 
18 9 0.000042 
19 9 0.154275 
20 9 0.139686 
21 9 0.019670 
22 9 0.000000 
23 9 0.000000 
24 9 0.011939 
25 9 0.126707 
26 9 0.049566 
27 9 0.137593 
28 9 0.000012 
29 9 0.094635 
30 9 0.038054 
1 10 0.000000 
2 10 0.000002 
3 10 0.026240 
4 10 0.000001 
5 10 0.032411 
6 10 0.000001 
7 10 0.035786 
8 10 0.000000 
9 10 0.000419 
11 10 0.002070 
12 10 0.000000 
13 10 0.000002 
14 10 0.013165 
15 10 0.068384 
16 10 0.074516 
17 10 0.001948 
18 10 0.030604 
19 10 0.000079 
20 10 0.000096 
21 10 0.000000 
22 10 0.013072 
23 10 0.000108 
24 10 0.087639 
25 10 0.003636 
26 10 0.000000 
27 10 0.000045 
28 10 0.049951 
29 10 0.000006 
30 10 0.036262 
1 11 0.000000 
2 11 0.235807 
3 11 0.000001 
4 11 0.000000 
5 11 0.029095 
6 11 0.000000 
7 11 0.018821 
8 11 0.000000 
9 11 0.000000 
10 11 0.000974 
12 11 0.000000 
13 11 0.000000 
14 11 0.000006 
15 11 0.003804 
16 11 0.000524 
17 11 0.000000 
18 11 0.023258 
19 11 0.000000 
20 11 0.000000 
21 11 0.000000 
22 11 0.125947 
23 11 0.409863 
24 11 0.000039 
25 11 0.000000 
26 11 0.000000 
27 11 0.000000 
28 11 0.009585 
29 11 0.000000 
30 11 0.000011 
1 12 0.809791 
2 12 0.000000 
3 12 0.000002 
4 12 0.001937 
5 12 0.000000 
6 12 0.076724 
7 12 0.000000 
8 12 0.186379 
9 12 0.000614 
10 12 0.000000 
11 12 0.000000 
13 12 0.026546 
14 12 0.000004 
15 12 0.000000 
16 12 0.000000 
17 12 0.000139 
18 12 0.000000 
19 12 0.004803 
20 12 0.000697 
21 12 0.189433 
22 12 0.000000 
23 12 0.000000 
24 12 0.000000 
25 12 0.000050 
26 12 0.020546 
27 12 0.003459 
28 12 0.000000 
29 12 0.029510 
30 12 0.000001 
1 13 0.003326 
2 13 0.000000 
3 13 0.000961 
4 13 0.173875 
5 13 0.000000 
6 13 0.085396 
7 13 0.000026 
8 13 0.123055 
9 13 0.026663 
10 13 0.000002 
11 13 0.000000 
12 13 0.047480 
14 13 0.002037 
15 13 0.000000 
16 13 0.000062 
17 13 0.009944 
18 13 0.000000 
19 13 0.045982 
20 13 0.101643 
21 13 0.100426 
22 13 0.000000 
23 13 0.000000 
24 13 0.000080 
25 13 0.006775 
26 13 0.206846 
27 13 0.088480 
28 13 0.000000 
29 13 0.088047 
30 13 0.000549 
1 14 0.000000 
2 14 0.000000 
3 14 0.095219 
4 14 0.002986 
5 14 0.000054 
6 14 0.002196 
7 14 0.052535 
8 14 0.000060 
9 14 0.048054 
10 14 0.021499 
11 14 0.000022 
12 14 0.000014 
13 14 0.003995 
15 14 0.000185 
16 14 0.076437 
17 14 0.069319 
18 14 0.002118 
19 14 0.022677 
20 14 0.028949 
21 14 0.000290 
22 14 0.000074 
23 14 0.000001 
24 14 0.075802 
25 14 0.085385 
26 14 0.001475 
27 14 0.019886 
28 14 0.000728 
29 14 0.005838 
30 14 0.102093 
1 15 0.000000 
2 15 0.000044 
3 15 0.000522 
4 15 0.000000 
5 15 0.222476 
6 15 0.000000 
7 15 0.049344 
8 15 0.000000 
9 15 0.000002 
10 15 0.164713 
11 15 0.019465 
12 15 0.000000 
13 15 0.000000 
14 15 0.000274 
16 15 0.019914 
17 15 0.000015 
18 15 0.169119 
19 15 0.000000 
20 15 0.000001 
21 15 0.000000 
22 15 0.099750 
23 15 0.001512 
24 15 0.008176 
25 15 0.000038 
26 15 0.000000 
27 15 0.000000 
28 15 0.278897 
29 15 0.000000 
30 15 0.001146 
1 16 0.000000 
2 16 0.000006 
3 16 0.075981 
4 16 0.000036 
5 16 0.008242 
6 16 0.000050 
7 16 0.134662 
8 16 0.000000 
9 16 0.005146 
10 16 0.096861 
11 16 0.001446 
12 16 0.000000 
13 16 0.000097 
14 16 0.060840 
15 16 0.010747 
17 16 0.013165 
18 16 0.018225 
19 16 0.001403 
20 16 0.002061 
21 16 0.000003 
22 16 0.005286 
23 16 0.000154 
24 16 0.156364 
25 16 0.022193 
26 16 0.000015 
27 16 0.001059 
28 16 0.014070 
29 16 0.000185 
30 16 0.104557 
1 17 0.000006 
2 17 0.000000 
3 17 0.181856 
4 17 0.005779 
5 17 0.000001 
6 17 0.052842 
7 17 0.009336 
8 17 0.001106 
9 17 0.242547 
10 17 0.007725 
11 17 0.000000 
12 17 0.001189 
13 17 0.047374 
14 17 0.168349 
15 17 0.000025 
16 17 0.040171 
18 17 0.000203 
19 17 0.221860 
20 17 0.079717 
21 17 0.009722 
22 17 0.000001 
23 17 0.000000 
24 17 0.058499 
25 17 0.281246 
26 17 0.009603 
27 17 0.119491 
28 17 0.000093 
29 17 0.088582 
30 17 0.125687 
1 18 0.000000 
2 18 0.002031 
3 18 0.001800 
4 18 0.000000 
5 18 0.182499 
6 18 0.000000 
7 18 0.133579 
8 18 0.000000 
9 18 0.000035 
10 18 0.061433 
11 18 0.099180 
12 18 0.000000 
13 18 0.000000 
14 18 0.002603 
15 18 0.140944 
16 18 0.028145 
17 18 0.000103 
19 18 0.000003 
20 18 0.000024 
21 18 0.000000 
22 18 0.166025 
23 18 0.025485 
24 18 0.009494 
25 18 0.000318 
26 18 0.000000 
27 18 0.000004 
28 18 0.169534 
29 18 0.000000 
30 18 0.004579 
1 19 0.000761 
2 19 0.000000 
3 19 0.035296 
4 19 0.023369 
5 19 0.000000 
6 19 0.222935 
7 19 0.000668 
8 19 0.023684 
9 19 0.186216 
10 19 0.000230 
11 19 0.000000 
12 19 0.030018 
13 19 0.160685 
14 19 0.040399 
15 19 0.000000 
16 19 0.003139 
17 19 0.162741 
18 19 0.000005 
20 19 0.086703 
21 19 0.090197 
22 19 0.000000 
23 19 0.000000 
24 19 0.004877 
25 19 0.110236 
26 19 0.054526 
27 19 0.177773 
28 19 0.000001 
29 19 0.253873 
30 19 0.019854 
1 20 0.000004 
2 20 0.000000 
3 20 0.001495 
4 20 0.196472 
5 20 0.000000 
6 20 0.003498 
7 20 0.000292 
8 20 0.008949 
9 20 0.013749 
10 20 0.000023 
11 20 0.000000 
12 20 0.000355 
13 20 0.028965 
14 20 0.004206 
15 20 0.000000 
16 20 0.000376 
17 20 0.004768 
18 20 0.000003 
19 20 0.007070 
21 20 0.004186 
22 20 0.000000 
23 20 0.000000 
24 20 0.000307 
25 20 0.005900 
26 20 0.070933 
27 20 0.045024 
28 20 0.000001 
29 20 0.009255 
30 20 0.001407 
1 21 0.113281 
2 21 0.000000 
3 21 0.000065 
4 21 0.032450 
5 21 0.000000 
6 21 0.147342 
7 21 0.000000 
8 21 0.236206 
9 21 0.006356 
10 21 0.000000 
11 21 0.000000 
12 21 0.316954 
13 21 0.093945 
14 21 0.000138 
15 21 0.000000 
16 21 0.000002 
17 21 0.001909 
18 21 0.000000 
19 21 0.024145 
20 21 0.013740 
22 21 0.000000 
23 21 0.000000 
24 21 0.000003 
25 21 0.000913 
26 21 0.102954 
27 21 0.026726 
28 21 0.000000 
29 21 0.086106 
30 21 0.000027 
1 22 0.000000 
2 22 0.037532 
3 22 0.000015 
4 22 0.000000 
5 22 0.169594 
6 22 0.000000 
7 22 0.078070 
8 22 0.000000 
9 22 0.000000 
10 22 0.021468 
11 22 0.439407 
12 22 0.000000 
13 22 0.000000 
14 22 0.000074 
15 22 0.068014 
16 22 0.006678 
17 22 0.000000 
18 22 0.135832 
19 22 0.000000 
20 22 0.000000 
21 22 0.000000 
23 22 0.218625 
24 22 0.000852 
25 22 0.000002 
26 22 0.000000 
27 22 0.000000 
28 22 0.103422 
29 22 0.000000 
30 22 0.000163 
1 23 0.000000 
2 23 0.719584 
3 23 0.000000 
4 23 0.000000 
5 23 0.002281 
6 23 0.000000 
7 23 0.002004 
8 23 0.000000 
9 23 0.000000 
10 23 0.000016 
11 23 0.125095 
12 23 0.000000 
13 23 0.000000 
14 23 0.000000 
15 23 0.000090 
16 23 0.000017 
17 23 0.000000 
18 23 0.001824 
19 23 0.000000 
20 23 0.000000 
21 23 0.000000 
22 23 0.019126 
24 23 0.000001 
25 23 0.000000 
26 23 0.000000 
27 23 0.000000 
28 23 0.000430 
29 23 0.000000 
30 23 0.000000 
1 24 0.000000 
2 24 0.000000 
3 24 0.137593 
4 24 0.000031 
5 24 0.002051 
6 24 0.000112 
7 24 0.070827 
8 24 0.000000 
9 24 0.008685 
10 24 0.153663 
11 24 0.000147 
12 24 0.000000 
13 24 0.000168 
14 24 0.081384 
15 24 0.005952 
16 24 0.210916 
17 24 0.025861 
18 24 0.008293 
19 24 0.002939 
20 24 0.002267 
21 24 0.000006 
22 24 0.000909 
23 24 0.000007 
25 24 0.037341 
26 24 0.000018 
27 24 0.001624 
28 24 0.007490 
29 24 0.000378 
30 24 0.161996 
1 25 0.000001 
2 25 0.000000 
3 25 0.176624 
4 25 0.010421 
5 25 0.000005 
6 25 0.023973 
7 25 0.021990 
8 25 0.000684 
9 25 0.185612 
10 25 0.012839 
11 25 0.000001 
12 25 0.000376 
13 25 0.028735 
14 25 0.184605 
15 25 0.000056 
16 25 0.060283 
17 25 0.250373 
18 25 0.000560 
19 25 0.133785 
20 25 0.087808 
21 25 0.004139 
22 25 0.000005 
23 25 0.000000 
24 25 0.075194 
26 25 0.008697 
27 25 0.090838 
28 25 0.000222 
29 25 0.047101 
30 25 0.142354 
1 26 0.000950 
2 26 0.000000 
3 26 0.000037 
4 26 0.188826 
5 26 0.000000 
6 26 0.011632 
7 26 0.000003 
8 26 0.096194 
9 26 0.004868 
10 26 0.000000 
11 26 0.000000 
12 26 0.010449 
13 26 0.058811 
14 26 0.000214 
15 26 0.000000 
16 26 0.000003 
17 26 0.000573 
18 26 0.000000 
19 26 0.004436 
20 26 0.070772 
21 26 0.031292 
22 26 0.000000 
23 26 0.000000 
24 26 0.000002 
25 26 0.000583 
27 26 0.037882 
28 26 0.000000 
29 26 0.017335 
30 26 0.000027 
1 27 0.000149 
2 27 0.000000 
3 27 0.005695 
4 27 0.202421 
5 27 0.000000 
6 27 0.040834 
7 27 0.000339 
8 27 0.035090 
9 27 0.050310 
10 27 0.000040 
11 27 0.000000 
12 27 0.006549 
13 27 0.093663 
14 27 0.010732 
15 27 0.000000 
16 27 0.000718 
17 27 0.026552 
18 27 0.000002 
19 27 0.053852 
20 27 0.167252 
21 27 0.030243 
22 27 0.000000 
23 27 0.000000 
24 27 0.000816 
25 27 0.022674 
26 27 0.141043 
28 27 0.000000 
29 27 0.060617 
30 27 0.003937 
1 28 0.000000 
2 28 0.000484 
3 28 0.001859 
4 28 0.000000 
5 28 0.343427 
6 28 0.000000 
7 28 0.118877 
8 28 0.000000 
9 28 0.000017 
10 28 0.164842 
11 28 0.067196 
12 28 0.000000 
13 28 0.000000 
14 28 0.001471 
15 28 0.382120 
16 28 0.035721 
17 28 0.000078 
18 28 0.278714 
19 28 0.000002 
20 28 0.000007 
21 28 0.000000 
22 28 0.207820 
23 28 0.009875 
24 28 0.014097 
25 28 0.000207 
26 28 0.000000 
27 28 0.000001 
29 28 0.000000 
30 28 0.003935 
1 29 0.007498 
2 29 0.000000 
3 29 0.004427 
4 29 0.064876 
5 29 0.000000 
6 29 0.254493 
7 29 0.000064 
8 29 0.108083 
9 29 0.071105 
10 29 0.000011 
11 29 0.000000 
12 29 0.114812 
13 29 0.191526 
14 29 0.006474 
15 29 0.000000 
16 29 0.000257 
17 29 0.040448 
18 29 0.000000 
19 29 0.158032 
20 29 0.070645 
21 29 0.200225 
22 29 0.000000 
23 29 0.000000 
24 29 0.000390 
25 29 0.024159 
26 29 0.132624 
27 29 0.124561 
28 29 0.000000 
30 29 0.002291 
1 30 0.000000 
2 30 0.000000 
3 30 0.195417 
4 30 0.000467 
5 30 0.000340 
6 30 0.001110 
7 30 0.098388 
8 30 0.000006 
9 30 0.040226 
10 30 0.092392 
11 30 0.000057 
12 30 0.000003 
13 30 0.001680 
14 30 0.159280 
15 30 0.001213 
16 30 0.204943 
17 30 0.080742 
18 30 0.005812 
19 30 0.017387 
20 30 0.015106 
21 30 0.000090 
22 30 0.000252 
23 30 0.000003 
24 30 0.235404 
25 30 0.102725 
26 30 0.000285 
27 30 0.011381 
28 30 0.003038 
29 30 0.003224 
